\ LP format - for model browsing. Use MPS format to capture full model detail.
Maximize
obj:   x[1] + x[4] + x[5] + x[138] + x[13] + x[145] + x[22] + x[23] + x[150]
   + x[31] + x[33] + x[37] + x[47] + x[67] + x[141] + x[83] + x[87] + x[89]
   + x[94] + x[102] + x[104] + x[106] + x[108] + x[110] + x[113] + x[114]
   + x[117] + x[119] + x[120] + x[124] + x[126] + x[2] + x[130] + x[6]
   + x[7] + x[8] + x[147] + x[24] + x[25] + x[27] + x[30] + x[134] + x[45]
   + x[48] + x[49] + x[58] + x[60] + x[64] + x[70] + x[74] + x[76] + x[82]
   + x[84] + x[116] + x[118] + x[123] + x[3] + x[65] + x[98] + x[35]
   + x[38] + x[129] + x[72] + x[41] + x[43] + x[77] + x[111] + x[51]
   + x[73] + x[52] + x[90] + x[63] + x[29] + x[62] + x[127] + x[10]
   + x[143] + x[17] + x[18] + x[34] + x[75] + x[109] + x[81] + x[85]
   + x[88] + x[15] + x[93] + x[100] + x[101] + x[107] + x[146] + x[122]
   + x[137] + x[139] + x[140] + x[14] + x[148] + x[54] + x[56] + x[86]
   + x[96] + x[125] + x[99] + x[68] + x[16] + x[40] + x[39] + x[80]
   + x[136] + x[53] + x[55] + x[57] + x[28] + x[135] + x[12] + x[20]
   + x[149] + x[26] + x[66] + x[79] + x[95] + x[103] + x[121] + x[132]
   + x[36] + x[61] + x[71] + x[9] + x[144] + x[19] + x[32] + x[42] + x[59]
   + x[91] + x[115] + x[11] + x[44] + x[92] + x[112] + x[131] + x[105]
   + x[142] + x[69] + x[21] + x[78] + x[128] + x[133] + x[46] + x[50]
   + x[97]
Subject To
 clq1: x[83] + x[7] + x[135] <= 1
 clq2: x[24] + x[45] + x[77] + x[88] <= 1
 clq3: x[83] + x[104] + x[118] + x[53] <= 1
 clq4: x[102] + x[111] + x[143] + x[61] <= 1
 clq5: x[63] + x[88] + x[100] + x[16] <= 1
 clq6: x[7] + x[25] + x[73] + x[80] <= 1
 clq7: x[130] + x[24] + x[51] + x[140] + x[40] <= 1
 clq8: x[47] + x[106] + x[49] + x[77] <= 1
 clq9: x[67] + x[45] + x[137] + x[86] <= 1
 clq10: x[13] + x[100] + x[61] + x[69] <= 1
 clq11: x[83] + x[94] + x[120] + x[76] <= 1
 clq12: x[102] + x[75] + x[148] + x[135] <= 1
 clq13: x[110] + x[7] + x[77] <= 1
 clq14: x[118] + x[146] + x[131] + x[50] <= 1
 clq15: x[25] + x[65] + x[148] + x[9] <= 1
 clq16: x[106] + x[29] + x[136] + x[61] <= 1
 clq17: x[4] + x[2] + x[84] + x[123] <= 1
 clq18: x[33] + x[120] + x[58] + x[132] <= 1
 clq19: x[45] + x[65] + x[29] + x[34] <= 1
 clq20: x[47] + x[116] + x[63] <= 1
 clq21: x[13] + x[134] + x[140] + x[125] <= 1
 clq22: x[67] + x[7] + x[30] + x[40] <= 1
 clq23: x[141] + x[83] + x[19] + x[21] <= 1
 clq24: x[102] + x[24] + x[107] + x[91] <= 1
 clq25: x[4] + x[111] + x[93] + x[101] <= 1
 clq26: x[37] + x[129] + x[100] + x[148] <= 1
 clq27: x[146] + x[80] + x[44] <= 1
 clq28: x[31] + x[106] + x[135] <= 1
 clq29: x[49] + x[35] + x[140] <= 1
 clq30: x[102] + x[82] + x[41] + x[96] <= 1
 clq31: x[33] + x[118] + x[65] + x[77] <= 1
 clq32: x[98] + x[136] + x[66] <= 1
 clq33: x[123] + x[63] + x[143] + x[91] <= 1
 clq34: x[25] + x[88] + x[136] + x[128] <= 1
 clq35: x[47] + x[45] + x[19] + x[69] <= 1
 clq36: x[89] + x[104] + x[68] + x[57] <= 1
 clq37: x[110] + x[90] + x[39] + x[61] <= 1
 clq38: x[145] + x[2] + x[58] + x[74] <= 1
 clq39: x[60] + x[34] + x[80] <= 1
 clq40: x[72] + x[101] + x[146] <= 1
 clq41: x[86] + x[68] + x[53] + x[121] <= 1
 clq42: x[1] + x[13] + x[23] + x[126] <= 1
 clq43: x[31] + x[27] + x[45] + x[10] <= 1
 clq44: x[67] + x[113] + x[35] + x[131] <= 1
 clq45: x[83] + x[107] + x[16] <= 1
 clq46: x[7] + x[111] + x[52] + x[121] <= 1
 clq47: x[49] + x[98] + x[135] <= 1
 clq48: x[8] + x[76] + x[84] + x[77] <= 1
 clq49: x[106] + x[27] + x[100] + x[95] <= 1
 clq50: x[129] + x[40] + x[115] <= 1
 clq51: x[41] + x[88] + x[59] <= 1
 clq52: x[24] + x[66] + x[21] <= 1
 clq53: x[130] + x[118] + x[72] <= 1
 clq54: x[33] + x[134] + x[39] + x[20] <= 1
 clq55: x[5] + x[2] + x[60] <= 1
 clq56: x[104] + x[82] + x[26] + x[9] <= 1
 clq57: x[150] + x[31] + x[63] + x[80] <= 1
 clq58: x[4] + x[35] + x[88] + x[122] <= 1
 clq59: x[104] + x[140] + x[69] <= 1
 clq60: x[145] + x[25] + x[143] + x[149] <= 1
 clq61: x[37] + x[101] + x[135] <= 1
 clq62: x[47] + x[16] + x[59] <= 1
 clq63: x[83] + x[108] + x[132] <= 1
 clq64: x[89] + x[29] + x[32] <= 1
 clq65: x[110] + x[120] + x[49] + x[82] + x[34] <= 1
 clq66: x[58] + x[107] + x[137] + x[99] + x[9] <= 1
 clq67: x[98] + x[111] + x[55] + x[57] <= 1
 clq68: x[45] + x[90] + x[93] <= 1
 clq69: x[5] + x[146] + x[86] <= 1
 clq70: x[40] + x[53] + x[97] <= 1
 clq71: x[61] + x[44] + x[142] <= 1
 clq72: x[10] + x[148] + x[44] + x[92] <= 1
 clq73: x[80] + x[36] + x[21] <= 1
 clq74: x[1] + x[67] + x[102] <= 1
 clq75: x[13] + x[146] + x[136] <= 1
 clq76: x[113] + x[24] + x[95] <= 1
 clq77: x[150] + x[119] + x[79] + x[131] <= 1
 clq78: x[126] + x[130] + x[41] + x[97] <= 1
 clq79: x[7] + x[76] + x[66] <= 1
 clq80: x[60] + x[70] + x[56] <= 1
 clq81: x[2] + x[134] + x[118] <= 1
 clq82: x[123] + x[100] + x[103] + x[132] <= 1
 clq83: x[89] + x[116] + x[129] + x[52] <= 1
 clq84: x[25] + x[72] + x[75] <= 1
 clq85: x[139] + x[140] + x[115] <= 1
 clq86: x[138] + x[90] + x[69] <= 1
 clq87: x[37] + x[28] + x[149] <= 1
 clq88: x[47] + x[135] + x[36] <= 1
 clq89: x[83] + x[85] + x[20] <= 1
 clq90: x[106] + x[40] + x[69] <= 1
 clq91: x[110] + x[117] + x[56] + x[16] <= 1
 clq92: x[8] + x[85] + x[39] <= 1
 clq93: x[65] + x[51] + x[86] <= 1
 clq94: x[77] + x[29] + x[46] <= 1
 clq95: x[63] + x[68] + x[142] + x[50] <= 1
 clq96: x[33] + x[93] + x[59] <= 1
 clq97: x[76] + x[101] + x[140] + x[20] <= 1
 clq98: x[13] + x[74] + x[73] + x[122] <= 1
 clq99: x[143] + x[144] + x[21] <= 1
 clq100: x[1] + x[4] + x[113] <= 1
 clq101: x[67] + x[18] + x[101] + x[66] <= 1
 clq102: x[102] + x[118] + x[32] <= 1
 clq103: x[138] + x[7] + x[95] <= 1
 clq104: x[37] + x[24] + x[53] <= 1
 clq105: x[60] + x[98] + x[90] <= 1
 clq106: x[70] + x[88] + x[92] <= 1
 clq107: x[47] + x[72] + x[115] <= 1
 clq108: x[89] + x[110] + x[8] + x[75] <= 1
 clq109: x[106] + x[81] + x[121] <= 1
 clq110: x[111] + x[34] + x[136] + x[131] <= 1
 clq111: x[134] + x[148] + x[57] <= 1
 clq112: x[5] + x[129] + x[56] <= 1
 clq113: x[31] + x[61] + x[21] <= 1
 clq114: x[83] + x[130] + x[79] + x[105] <= 1
 clq115: x[108] + x[113] + x[146] <= 1
 clq116: x[119] + x[64] + x[35] + x[135] <= 1
 clq117: x[120] + x[100] + x[149] <= 1
 clq118: x[124] + x[60] + x[28] <= 1
 clq119: x[126] + x[25] + x[49] <= 1
 clq120: x[30] + x[92] + x[133] <= 1
 clq121: x[58] + x[41] + x[14] <= 1
 clq122: x[116] + x[123] + x[68] + x[40] <= 1
 clq123: x[65] + x[52] + x[11] <= 1
 clq124: x[138] + x[77] + x[86] <= 1
 clq125: x[29] + x[81] + x[132] <= 1
 clq126: x[60] + x[118] + x[10] + x[19] <= 1
 clq127: x[15] + x[57] + x[59] <= 1
 clq128: x[85] + x[93] + x[80] <= 1
 clq129: x[137] + x[12] + x[42] <= 1
 clq130: x[139] + x[16] + x[121] <= 1
 clq131: x[65] + x[99] + x[144] <= 1
 clq132: x[37] + x[32] + x[46] <= 1
 clq133: x[1] + x[138] + x[33] + x[87] <= 1
 clq134: x[4] + x[90] + x[143] <= 1
 clq135: x[23] + x[24] <= 1
 clq136: x[94] + x[27] + x[98] <= 1
 clq137: x[102] + x[62] <= 1
 clq138: x[102] + x[104] + x[16] + x[95] <= 1
 clq139: x[114] + x[7] + x[107] <= 1
 clq140: x[106] + x[117] + x[134] + x[97] <= 1
 clq141: x[2] + x[45] + x[48] <= 1
 clq142: x[70] + x[125] + x[142] <= 1
 clq143: x[82] + x[72] + x[39] <= 1
 clq144: x[63] + x[53] + x[78] <= 1
 clq145: x[27] + x[122] + x[96] + x[36] <= 1
 clq146: x[5] + x[83] + x[54] <= 1
 clq147: x[75] + x[71] + x[44] <= 1
 clq148: x[35] + x[115] + x[128] + x[133] <= 1
 clq149: x[18] + x[109] + x[69] <= 1
 clq150: x[13] + x[137] + x[57] <= 1
 clq151: x[145] + x[67] + x[72] + x[15] <= 1
 clq152: x[22] + x[73] + x[146] <= 1
 clq153: x[23] + x[136] + x[132] <= 1
 clq154: x[150] + x[73] + x[105] + x[21] <= 1
 clq155: x[31] + x[73] + x[140] <= 1
 clq156: x[47] + x[114] + x[129] <= 1
 clq157: x[108] + x[148] + x[50] <= 1
 clq158: x[120] + x[24] + x[61] <= 1
 clq159: x[124] + x[7] + x[149] <= 1
 clq160: x[126] + x[48] + x[51] <= 1
 clq161: x[30] + x[29] + x[55] <= 1
 clq162: x[49] + x[57] + x[26] <= 1
 clq163: x[47] + x[6] + x[58] + x[136] <= 1
 clq164: x[76] + x[54] + x[42] <= 1
 clq165: x[24] + x[84] + x[139] + x[32] <= 1
 clq166: x[41] + x[99] + x[103] <= 1
 clq167: x[77] + x[93] + x[132] <= 1
 clq168: x[52] + x[88] + x[28] <= 1
 clq169: x[25] + x[62] + x[46] <= 1
 clq170: x[127] + x[10] + x[100] <= 1
 clq171: x[63] + x[86] + x[39] <= 1
 clq172: x[114] + x[8] + x[80] <= 1
 clq173: x[13] + x[70] + x[66] + x[11] <= 1
 clq174: x[89] + x[9] + x[59] <= 1
 clq175: x[4] + x[87] + x[74] + x[34] <= 1
 clq176: x[94] + x[130] + x[11] <= 1
 clq177: x[83] + x[113] + x[2] <= 1
 clq178: x[119] + x[26] + x[19] <= 1
 clq179: x[45] + x[18] + x[71] <= 1
 clq180: x[7] + x[123] + x[98] <= 1
 clq181: x[3] + x[65] + x[38] <= 1
 clq182: x[111] + x[109] + x[20] <= 1
 clq183: x[143] + x[92] + x[69] <= 1
 clq184: x[51] + x[81] + x[131] <= 1
 clq185: x[107] + x[40] + x[149] <= 1
 clq186: x[104] + x[125] + x[121] <= 1
 clq187: x[23] + x[89] + x[122] + x[53] <= 1
 clq188: x[146] + x[135] + x[26] <= 1
 clq189: x[129] + x[12] + x[142] <= 1
 clq190: x[79] + x[142] + x[78] <= 1
 clq191: x[140] + x[95] + x[144] <= 1
 clq192: x[22] + x[41] + x[44] <= 1
 clq193: x[1] + x[5] + x[108] + x[110] <= 1
 clq194: x[31] + x[148] <= 1
 clq195: x[33] + x[49] + x[56] <= 1
 clq196: x[37] + x[14] + x[78] <= 1
 clq197: x[117] + x[90] + x[137] <= 1
 clq198: x[120] + x[75] + x[59] <= 1
 clq199: x[124] + x[130] + x[36] <= 1
 clq200: x[108] + x[126] + x[96] <= 1
 clq201: x[30] + x[82] + x[127] <= 1
 clq202: x[76] + x[92] + x[46] <= 1
 clq203: x[147] + x[116] + x[93] <= 1
 clq204: x[118] + x[3] + x[29] <= 1
 clq205: x[77] + x[111] + x[17] <= 1
 clq206: x[52] + x[137] + x[61] <= 1
 clq207: x[62] + x[55] + x[103] <= 1
 clq208: x[85] + x[86] + x[46] <= 1
 clq209: x[88] + x[42] + x[44] <= 1
 clq210: x[60] + x[100] + x[133] <= 1
 clq211: x[113] + x[101] + x[28] <= 1
 clq212: x[99] + x[91] + x[69] <= 1
 clq213: x[80] + x[55] + x[115] <= 1
 clq214: x[145] + x[135] + x[19] <= 1
 clq215: x[150] + x[2] + x[116] <= 1
 clq216: x[31] + x[40] <= 1
 clq217: x[67] + x[12] + x[112] <= 1
 clq218: x[94] + x[84] + x[68] <= 1
 clq219: x[102] + x[134] <= 1
 clq220: x[141] + x[106] + x[143] <= 1
 clq221: x[119] + x[8] + x[51] + x[61] <= 1
 clq222: x[25] + x[122] + x[50] <= 1
 clq223: x[45] + x[54] + x[55] <= 1
 clq224: x[48] + x[9] + x[144] <= 1
 clq225: x[58] + x[56] + x[20] <= 1
 clq226: x[64] + x[63] + x[61] <= 1
 clq227: x[123] + x[125] <= 1
 clq228: x[4] + x[98] + x[15] + x[107] <= 1
 clq229: x[38] + x[66] + x[36] <= 1
 clq230: x[43] + x[10] + x[88] <= 1
 clq231: x[81] + x[21] + x[133] <= 1
 clq232: x[139] + x[149] + x[11] + x[131] <= 1
 clq233: x[27] + x[148] + x[136] <= 1
 clq234: x[6] + x[84] + x[39] <= 1
 clq235: x[100] + x[79] + x[121] <= 1
 clq236: x[29] + x[28] + x[71] <= 1
 clq237: x[22] + x[23] + x[118] <= 1
 clq238: x[1] + x[31] + x[37] <= 1
 clq239: x[33] + x[102] + x[85] <= 1
 clq240: x[104] + x[30] + x[129] + x[34] + x[132] <= 1
 clq241: x[117] + x[41] + x[109] <= 1
 clq242: x[120] + x[86] + x[40] <= 1
 clq243: x[124] + x[75] + x[146] <= 1
 clq244: x[106] + x[126] + x[35] <= 1
 clq245: x[89] + x[134] + x[123] + x[136] <= 1
 clq246: x[49] + x[101] + x[53] + x[92] <= 1
 clq247: x[70] + x[65] + x[96] <= 1
 clq248: x[74] + x[72] + x[32] <= 1
 clq249: x[67] + x[76] + x[80] <= 1
 clq250: x[145] + x[82] + x[97] <= 1
 clq251: x[77] + x[105] + x[128] <= 1
 clq252: x[25] + x[52] + x[99] <= 1
 clq253: x[90] + x[66] + x[103] <= 1
 clq254: x[3] + x[43] + x[62] <= 1
 clq255: x[127] + x[95] + x[42] + x[78] <= 1
 clq256: x[5] + x[18] + x[96] <= 1
 clq257: x[72] + x[93] + x[91] <= 1
 clq258: x[5] + x[74] + x[140] + x[14] <= 1
 clq259: x[126] + x[125] + x[115] <= 1
 clq260: x[93] + x[16] + x[135] + x[128] <= 1
 clq261: x[35] + x[39] + x[59] <= 1
 clq262: x[138] + x[10] + x[121] <= 1
 clq263: x[13] + x[9] <= 1
 clq264: x[150] + x[86] + x[71] <= 1
 clq265: x[4] + x[47] + x[48] <= 1
 clq266: x[83] + x[68] <= 1
 clq267: x[87] + x[76] + x[50] <= 1
 clq268: x[94] + x[111] + x[40] <= 1
 clq269: x[113] + x[12] + x[59] <= 1
 clq270: x[33] + x[114] + x[69] + x[50] <= 1
 clq271: x[2] + x[130] + x[70] <= 1
 clq272: x[7] + x[143] <= 1
 clq273: x[147] + x[17] + x[142] <= 1
 clq274: x[24] + x[148] <= 1
 clq275: x[45] + x[107] + x[105] <= 1
 clq276: x[58] + x[101] + x[79] <= 1
 clq277: x[64] + x[65] + x[44] <= 1
 clq278: x[38] + x[146] + x[54] <= 1
 clq279: x[63] + x[57] + x[20] <= 1
 clq280: x[13] + x[81] + x[93] <= 1
 clq281: x[76] + x[144] + x[91] <= 1
 clq282: x[19] + x[112] <= 1
 clq283: x[137] + x[125] + x[21] <= 1
 clq284: x[22] + x[98] + x[46] <= 1
 clq285: x[31] + x[82] + x[121] <= 1
 clq286: x[37] + x[18] + x[133] <= 1
 clq287: x[1] + x[141] + x[120] + x[124] <= 1
 clq288: x[83] + x[109] + x[97] <= 1
 clq289: x[102] + x[68] + x[9] <= 1
 clq290: x[117] + x[80] + x[28] <= 1
 clq291: x[138] + x[119] + x[100] <= 1
 clq292: x[6] + x[99] + x[68] <= 1
 clq293: x[7] + x[90] + x[26] <= 1
 clq294: x[8] + x[129] + x[36] <= 1
 clq295: x[24] + x[131] <= 1
 clq296: x[27] + x[139] + x[20] <= 1
 clq297: x[60] + x[77] <= 1
 clq298: x[116] + x[15] + x[103] <= 1
 clq299: x[25] + x[118] + x[66] <= 1
 clq300: x[106] + x[41] + x[19] <= 1
 clq301: x[52] + x[140] + x[112] <= 1
 clq302: x[29] + x[62] <= 1
 clq303: x[127] + x[143] + x[115] <= 1
 clq304: x[73] + x[75] + x[14] <= 1
 clq305: x[130] + x[85] <= 1
 clq306: x[88] + x[56] <= 1
 clq307: x[49] + x[43] + x[148] <= 1
 clq308: x[9] + x[32] + x[42] <= 1
 clq309: x[145] + x[47] + x[85] <= 1
 clq310: x[23] + x[3] + x[90] <= 1
 clq311: x[150] + x[108] + x[122] <= 1
 clq312: x[67] + x[16] <= 1
 clq313: x[87] + x[63] + x[131] <= 1
 clq314: x[94] + x[119] + x[53] <= 1
 clq315: x[110] + x[134] + x[116] <= 1
 clq316: x[113] + x[51] + x[92] <= 1
 clq317: x[2] + x[147] + x[30] <= 1
 clq318: x[24] + x[123] + x[65] <= 1
 clq319: x[22] + x[45] + x[17] <= 1
 clq320: x[48] + x[29] + x[44] <= 1
 clq321: x[108] + x[58] + x[81] <= 1
 clq322: x[60] + x[29] + x[144] <= 1
 clq323: x[64] + x[99] + x[71] <= 1
 clq324: x[84] + x[38] <= 1
 clq325: x[77] + x[149] + x[79] <= 1
 clq326: x[118] + x[111] + x[105] <= 1
 clq327: x[62] + x[12] + x[36] <= 1
 clq328: x[7] + x[10] + x[125] <= 1
 clq329: x[88] + x[54] + x[39] <= 1
 clq330: x[52] + x[56] + x[44] + x[21] <= 1
 clq331: x[23] + x[102] + x[57] <= 1
 clq332: x[28] + x[95] <= 1
 clq333: x[103] + x[142] <= 1
 clq334: x[13] + x[109] <= 1
 clq335: x[31] + x[115] <= 1
 clq336: x[37] + x[130] <= 1
 clq337: x[67] + x[41] <= 1
 clq338: x[83] + x[38] + x[125] <= 1
 clq339: x[104] + x[65] + x[19] <= 1
 clq340: x[114] + x[85] + x[97] <= 1
 clq341: x[87] + x[117] + x[86] <= 1
 clq342: x[126] + x[69] <= 1
 clq343: x[6] + x[40] + x[55] <= 1
 clq344: x[8] + x[15] + x[71] <= 1
 clq345: x[27] + x[75] <= 1
 clq346: x[70] + x[35] + x[90] <= 1
 clq347: x[82] + x[59] + x[142] <= 1
 clq348: x[84] + x[98] <= 1
 clq349: x[72] + x[100] + x[139] <= 1
 clq350: x[113] + x[143] + x[78] <= 1
 clq351: x[4] + x[17] + x[18] <= 1
 clq352: x[34] + x[11] <= 1
 clq353: x[107] + x[80] <= 1
 clq354: x[37] + x[146] + x[125] <= 1
 clq355: x[147] + x[137] + x[112] <= 1
 clq356: x[139] + x[148] + x[95] <= 1
 clq357: x[86] + x[96] + x[91] <= 1
 clq358: x[118] + x[34] + x[16] + x[144] <= 1
 clq359: x[15] + x[135] + x[66] <= 1
 clq360: x[26] + x[61] + x[46] <= 1
 clq361: x[106] + x[32] + x[133] <= 1
 clq362: x[138] + x[67] + x[78] <= 1
 clq363: x[13] + x[33] <= 1
 clq364: x[145] + x[28] + x[103] <= 1
 clq365: x[150] + x[104] + x[134] <= 1
 clq366: x[31] + x[2] <= 1
 clq367: x[47] + x[41] <= 1
 clq368: x[141] + x[132] <= 1
 clq369: x[94] + x[140] <= 1
 clq370: x[110] + x[107] + x[131] <= 1
 clq371: x[120] + x[130] <= 1
 clq372: x[124] + x[48] + x[53] <= 1
 clq373: x[126] + x[122] + x[39] <= 1
 clq374: x[24] + x[101] + x[68] <= 1
 clq375: x[25] + x[84] <= 1
 clq376: x[27] + x[42] <= 1
 clq377: x[45] + x[75] + x[28] <= 1
 clq378: x[49] + x[14] <= 1
 clq379: x[58] + x[64] + x[143] <= 1
 clq380: x[25] + x[60] + x[127] <= 1
 clq381: x[110] + x[74] + x[62] <= 1
 clq382: x[123] + x[73] <= 1
 clq383: x[3] + x[98] + x[129] <= 1
 clq384: x[43] + x[111] + x[79] <= 1
 clq385: x[77] + x[140] + x[68] <= 1
 clq386: x[51] + x[20] + x[142] <= 1
 clq387: x[6] + x[63] <= 1
 clq388: x[10] + x[11] + x[112] <= 1
 clq389: x[114] + x[109] + x[88] <= 1
 clq390: x[81] + x[80] <= 1
 clq391: x[73] + x[54] + x[99] <= 1
 clq392: x[41] + x[57] <= 1
 clq393: x[35] + x[12] <= 1
 clq394: x[117] + x[38] + x[149] <= 1
 clq395: x[102] + x[121] <= 1
 clq396: x[132] + x[9] + x[115] <= 1
 clq397: x[83] + x[41] + x[69] <= 1
 clq398: x[72] + x[128] <= 1
 clq399: x[1] + x[47] + x[94] <= 1
 clq400: x[5] + x[8] <= 1
 clq401: x[13] + x[12] <= 1
 clq402: x[22] + x[84] + x[36] <= 1
 clq403: x[31] + x[116] <= 1
 clq404: x[33] + x[40] <= 1
 clq405: x[141] + x[27] + x[18] <= 1
 clq406: x[89] + x[2] <= 1
 clq407: x[119] + x[58] + x[50] <= 1
 clq408: x[120] + x[135] <= 1
 clq409: x[130] + x[49] + x[143] <= 1
 clq410: x[7] + x[137] + x[20] <= 1
 clq411: x[30] + x[79] + x[97] <= 1
 clq412: x[145] + x[70] + x[100] <= 1
 clq413: x[145] + x[76] + x[148] <= 1
 clq414: x[82] + x[105] <= 1
 clq415: x[123] + x[96] + x[80] <= 1
 clq416: x[63] + x[92] <= 1
 clq417: x[67] + x[81] + x[26] <= 1
 clq418: x[24] + x[146] + x[14] <= 1
 clq419: x[63] + x[56] + x[46] <= 1
 clq420: x[107] + x[136] + x[42] <= 1
 clq421: x[87] + x[55] + x[19] <= 1
 clq422: x[57] + x[21] <= 1
 clq423: x[60] + x[95] + x[59] <= 1
 clq424: x[88] + x[121] + x[71] <= 1
 clq425: x[129] + x[32] + x[128] <= 1
 clq426: x[98] + x[14] + x[91] <= 1
 clq427: x[4] + x[110] + x[10] <= 1
 clq428: x[5] + x[35] + x[148] <= 1
 clq429: x[138] + x[8] <= 1
 clq430: x[13] + x[149] + x[144] <= 1
 clq431: x[23] + x[39] <= 1
 clq432: x[150] + x[103] <= 1
 clq433: x[31] + x[101] + x[56] <= 1
 clq434: x[33] + x[131] <= 1
 clq435: x[37] + x[122] + x[54] <= 1
 clq436: x[89] + x[115] + x[105] <= 1
 clq437: x[102] + x[66] <= 1
 clq438: x[106] + x[82] <= 1
 clq439: x[108] + x[64] <= 1
 clq440: x[113] + x[40] + x[133] <= 1
 clq441: x[120] + x[12] <= 1
 clq442: x[124] + x[85] <= 1
 clq443: x[126] + x[95] + x[21] <= 1
 clq444: x[2] + x[6] + x[25] <= 1
 clq445: x[147] + x[79] + x[69] <= 1
 clq446: x[134] + x[48] + x[111] <= 1
 clq447: x[45] + x[52] <= 1
 clq448: x[37] + x[74] + x[93] <= 1
 clq449: x[116] + x[3] <= 1
 clq450: x[72] + x[29] <= 1
 clq451: x[43] + x[135] <= 1
 clq452: x[4] + x[77] + x[75] <= 1
 clq453: x[3] + x[51] + x[73] <= 1
 clq454: x[62] + x[99] <= 1
 clq455: x[127] + x[92] <= 1
 clq456: x[17] + x[100] <= 1
 clq457: x[109] + x[16] <= 1
 clq458: x[35] + x[53] + x[36] <= 1
 clq459: x[138] + x[57] <= 1
 clq460: x[135] + x[61] <= 1
 clq461: x[33] + x[75] + x[11] <= 1
 clq462: x[1] + x[145] + x[104] <= 1
 clq463: x[22] + x[47] + x[78] <= 1
 clq464: x[23] + x[130] + x[45] <= 1
 clq465: x[150] + x[9] <= 1
 clq466: x[141] + x[57] + x[50] <= 1
 clq467: x[83] + x[71] + x[131] <= 1
 clq468: x[94] + x[80] + x[103] <= 1
 clq469: x[102] + x[34] <= 1
 clq470: x[106] + x[85] <= 1
 clq471: x[108] + x[70] <= 1
 clq472: x[114] + x[59] <= 1
 clq473: x[117] + x[12] <= 1
 clq474: x[119] + x[66] <= 1
 clq475: x[120] + x[142] <= 1
 clq476: x[31] + x[124] + x[44] <= 1
 clq477: x[7] + x[17] <= 1
 clq478: x[8] + x[48] + x[132] <= 1
 clq479: x[2] + x[27] + x[82] <= 1
 clq480: x[30] + x[39] <= 1
 clq481: x[49] + x[72] + x[50] <= 1
 clq482: x[64] + x[16] <= 1
 clq483: x[76] + x[123] <= 1
 clq484: x[130] + x[84] + x[112] <= 1
 clq485: x[116] + x[65] + x[121] <= 1
 clq486: x[38] + x[109] <= 1
 clq487: x[43] + x[136] <= 1
 clq488: x[52] + x[26] <= 1
 clq489: x[90] + x[34] + x[139] <= 1
 clq490: x[29] + x[18] <= 1
 clq491: x[62] + x[69] <= 1
 clq492: x[127] + x[140] <= 1
 clq493: x[81] + x[92] <= 1
 clq494: x[5] + x[89] + x[15] <= 1
 clq495: x[146] + x[97] <= 1
 clq496: x[137] + x[91] + x[131] <= 1
 clq497: x[86] + x[55] <= 1
 clq498: x[100] + x[96] <= 1
 clq499: x[10] + x[18] + x[61] <= 1
 clq500: x[117] + x[19] + x[32] <= 1
 clq501: x[98] + x[42] <= 1
 clq502: x[67] + x[128] <= 1
 clq503: x[66] + x[46] <= 1
 clq504: x[138] + x[123] + x[59] <= 1
 clq505: x[13] + x[76] + x[53] <= 1
 clq506: x[150] + x[41] + x[10] <= 1
 clq507: x[87] + x[102] <= 1
 clq508: x[106] + x[147] <= 1
 clq509: x[108] + x[114] <= 1
 clq510: x[113] + x[134] <= 1
 clq511: x[119] + x[101] <= 1
 clq512: x[120] + x[105] <= 1
 clq513: x[126] + x[107] <= 1
 clq514: x[6] + x[7] <= 1
 clq515: x[24] + x[99] <= 1
 clq516: x[30] + x[74] <= 1
 clq517: x[58] + x[140] + x[128] <= 1
 clq518: x[60] + x[40] <= 1
 clq519: x[64] + x[132] <= 1
 clq520: x[70] + x[39] <= 1
 clq521: x[118] + x[97] <= 1
 clq522: x[38] + x[133] <= 1
 clq523: x[60] + x[43] + x[21] <= 1
 clq524: x[77] + x[16] <= 1
 clq525: x[129] + x[111] <= 1
 clq526: x[51] + x[136] <= 1
 clq527: x[3] + x[72] + x[52] <= 1
 clq528: x[63] + x[93] <= 1
 clq529: x[98] + x[29] + x[11] <= 1
 clq530: x[62] + x[149] <= 1
 clq531: x[127] + x[135] <= 1
 clq532: x[17] + x[9] <= 1
 clq533: x[4] + x[109] + x[146] <= 1
 clq534: x[81] + x[101] <= 1
 clq535: x[85] + x[54] + x[61] <= 1
 clq536: x[23] + x[88] + x[86] <= 1
 clq537: x[122] + x[79] + x[46] <= 1
 clq538: x[7] + x[96] + x[12] <= 1
 clq539: x[134] + x[55] + x[142] <= 1
 clq540: x[28] + x[36] + x[42] <= 1
 clq541: x[20] + x[133] <= 1
 clq542: x[26] + x[69] <= 1
 clq543: x[99] + x[136] + x[115] <= 1
 clq544: x[33] + x[92] <= 1
 clq545: x[1] + x[150] + x[106] <= 1
 clq546: x[22] + x[68] <= 1
 clq547: x[47] + x[102] + x[125] <= 1
 clq548: x[67] + x[74] <= 1
 clq549: x[141] + x[40] <= 1
 clq550: x[83] + x[78] <= 1
 clq551: x[87] + x[103] <= 1
 clq552: x[94] + x[137] <= 1
 clq553: x[104] + x[38] <= 1
 clq554: x[108] + x[144] + x[32] <= 1
 clq555: x[113] + x[65] <= 1
 clq556: x[114] + x[82] + x[77] <= 1
 clq557: x[119] + x[112] <= 1
 clq558: x[120] + x[107] <= 1
 clq559: x[124] + x[56] <= 1
 clq560: x[126] + x[105] <= 1
 clq561: x[6] + x[80] <= 1
 clq562: x[8] + x[10] + x[20] <= 1
 clq563: x[147] + x[48] + x[15] <= 1
 clq564: x[24] + x[100] <= 1
 clq565: x[25] + x[16] <= 1
 clq566: x[27] + x[118] <= 1
 clq567: x[30] + x[143] <= 1
 clq568: x[45] + x[66] <= 1
 clq569: x[49] + x[17] <= 1
 clq570: x[2] + x[64] <= 1
 clq571: x[70] + x[121] <= 1
 clq572: x[84] + x[111] <= 1
 clq573: x[116] + x[43] + x[39] <= 1
 clq574: x[51] + x[149] <= 1
 clq575: x[73] + x[135] <= 1
 clq576: x[90] + x[107] <= 1
 clq577: x[63] + x[14] <= 1
 clq578: x[62] + x[139] <= 1
 clq579: x[127] + x[9] <= 1
 clq580: x[129] + x[81] <= 1
 clq581: x[25] + x[93] + x[19] <= 1
 clq582: x[148] + x[97] <= 1
 clq583: x[57] + x[44] <= 1
 clq584: x[37] + x[26] <= 1
 clq585: x[48] + x[74] + x[95] <= 1
 clq586: x[41] + x[56] + x[91] <= 1
 clq587: x[122] + x[92] <= 1
 clq588: x[5] + x[137] <= 1
 clq589: x[138] + x[11] <= 1
 clq590: x[13] + x[22] + x[143] <= 1
 clq591: x[23] + x[31] + x[71] <= 1
 clq592: x[33] + x[6] <= 1
 clq593: x[67] + x[42] <= 1
 clq594: x[141] + x[30] + x[111] <= 1
 clq595: x[83] + x[51] <= 1
 clq596: x[87] + x[75] <= 1
 clq597: x[89] + x[58] + x[90] <= 1
 clq598: x[94] + x[133] <= 1
 clq599: x[104] + x[49] <= 1
 clq600: x[110] + x[70] <= 1
 clq601: x[113] + x[66] <= 1
 clq602: x[117] + x[126] + x[68] <= 1
 clq603: x[119] + x[121] <= 1
 clq604: x[120] + x[57] <= 1
 clq605: x[124] + x[76] <= 1
 clq606: x[24] + x[55] <= 1
 clq607: x[27] + x[40] <= 1
 clq608: x[45] + x[14] <= 1
 clq609: x[64] + x[100] <= 1
 clq610: x[84] + x[78] <= 1
 clq611: x[118] + x[103] <= 1
 clq612: x[123] + x[35] <= 1
 clq613: x[65] + x[69] <= 1
 clq614: x[38] + x[9] <= 1
 clq615: x[33] + x[73] <= 1
 clq616: x[52] + x[105] <= 1
 clq617: x[63] + x[62] <= 1
 clq618: x[38] + x[29] <= 1
 clq619: x[127] + x[132] <= 1
 clq620: x[17] + x[140] <= 1
 clq621: x[18] + x[92] <= 1
 clq622: x[34] + x[44] <= 1
 clq623: x[109] + x[101] <= 1
 clq624: x[81] + x[135] <= 1
 clq625: x[123] + x[85] + x[149] <= 1
 clq626: x[88] + x[112] <= 1
 clq627: x[146] + x[39] <= 1
 clq628: x[139] + x[97] <= 1
 clq629: x[106] + x[148] + x[59] <= 1
 clq630: x[116] + x[54] + x[21] <= 1
 clq631: x[37] + x[83] + x[86] <= 1
 clq632: x[96] + x[16] <= 1
 clq633: x[70] + x[80] <= 1
 clq634: x[98] + x[53] <= 1
 clq635: x[65] + x[28] <= 1
 clq636: x[72] + x[12] <= 1
 clq637: x[26] + x[36] <= 1
 clq638: x[115] + x[11] <= 1
 clq639: x[84] + x[142] + x[128] <= 1
 clq640: x[38] + x[40] + x[46] <= 1
 clq641: x[1] + x[114] <= 1
 clq642: x[5] + x[139] <= 1
 clq643: x[138] + x[47] <= 1
 clq644: x[67] + x[108] + x[130] <= 1
 clq645: x[87] + x[41] + x[20] <= 1
 clq646: x[94] + x[60] + x[18] <= 1
 clq647: x[102] + x[8] <= 1
 clq648: x[104] + x[122] <= 1
 clq649: x[110] + x[12] <= 1
 clq650: x[113] + x[29] + x[14] <= 1
 clq651: x[119] + x[2] <= 1
 clq652: x[120] + x[144] <= 1
 clq653: x[124] + x[63] <= 1
 clq654: x[6] + x[16] <= 1
 clq655: x[7] + x[103] <= 1
 clq656: x[147] + x[140] <= 1
 clq657: x[24] + x[42] <= 1
 clq658: x[7] + x[27] + x[88] <= 1
 clq659: x[134] + x[131] <= 1
 clq660: x[45] + x[133] <= 1
 clq661: x[49] + x[62] <= 1
 clq662: x[64] + x[80] <= 1
 clq663: x[2] + x[76] <= 1
 clq664: x[82] + x[61] <= 1
 clq665: x[118] + x[73] <= 1
 clq666: x[3] + x[35] + x[127] <= 1
 clq667: x[129] + x[97] <= 1
 clq668: x[77] + x[53] <= 1
 clq669: x[51] + x[105] <= 1
 clq670: x[52] + x[125] <= 1
 clq671: x[102] + x[17] <= 1
 clq672: x[34] + x[19] <= 1
 clq673: x[75] + x[69] <= 1
 clq674: x[109] + x[66] <= 1
 clq675: x[81] + x[50] <= 1
 clq676: x[13] + x[15] + x[121] <= 1
 clq677: x[93] + x[57] <= 1
 clq678: x[100] + x[135] <= 1
 clq679: x[85] + x[101] + x[96] <= 1
 clq680: x[107] + x[133] <= 1
 clq681: x[146] + x[105] <= 1
 clq682: x[137] + x[132] <= 1
 clq683: x[99] + x[135] <= 1
 clq684: x[136] + x[9] <= 1
 clq685: x[34] + x[55] <= 1
 clq686: x[6] + x[28] <= 1
 clq687: x[8] + x[26] <= 1
 clq688: x[95] + x[131] <= 1
 clq689: x[110] + x[32] <= 1
 clq690: x[129] + x[91] <= 1
 clq691: x[115] + x[78] <= 1
 clq692: x[33] + x[44] <= 1
 clq693: x[137] + x[92] <= 1
 clq694: x[138] + x[112] <= 1
 clq695: x[1] + x[117] <= 1
 clq696: x[4] + x[100] <= 1
 clq697: x[5] + x[72] <= 1
 clq698: x[145] + x[75] <= 1
 clq699: x[22] + x[122] <= 1
 clq700: x[150] + x[12] <= 1
 clq701: x[31] + x[91] <= 1
 clq702: x[47] + x[46] <= 1
 clq703: x[141] + x[11] <= 1
 clq704: x[89] + x[124] <= 1
 clq705: x[104] + x[42] <= 1
 clq706: x[114] + x[68] <= 1
 clq707: x[119] + x[77] <= 1
 clq708: x[47] + x[120] + x[25] <= 1
 clq709: x[126] + x[44] <= 1
 clq710: x[147] + x[51] <= 1
 clq711: x[24] + x[82] <= 1
 clq712: x[30] + x[99] <= 1
 clq713: x[134] + x[81] <= 1
 clq714: x[45] + x[50] <= 1
 clq715: x[49] + x[71] <= 1
 clq716: x[58] + x[92] <= 1
 clq717: x[64] + x[74] <= 1
 clq718: x[70] + x[36] <= 1
 clq719: x[76] + x[142] <= 1
 clq720: x[118] + x[125] <= 1
 clq721: x[65] + x[143] <= 1
 clq722: x[98] + x[69] <= 1
 clq723: x[43] + x[80] <= 1
 clq724: x[111] + x[107] <= 1
 clq725: x[73] + x[57] <= 1
 clq726: x[52] + x[68] + x[39] <= 1
 clq727: x[84] + x[90] + x[17] <= 1
 clq728: x[63] + x[79] <= 1
 clq729: x[62] + x[132] <= 1
 clq730: x[109] + x[140] <= 1
 clq731: x[93] + x[148] <= 1
 clq732: x[146] + x[144] <= 1
 clq733: x[139] + x[66] <= 1
 clq734: x[54] + x[32] <= 1
 clq735: x[56] + x[149] <= 1
 clq736: x[86] + x[103] <= 1
 clq737: x[16] + x[115] <= 1
 clq738: x[136] + x[95] <= 1
 clq739: x[6] + x[53] <= 1
 clq740: x[70] + x[55] <= 1
 clq741: x[40] + x[28] <= 1
 clq742: x[110] + x[26] <= 1
 clq743: x[61] + x[78] <= 1
 clq744: x[9] + x[19] <= 1
 clq745: x[59] + x[112] <= 1
 clq746: x[21] + x[128] <= 1
 clq747: x[35] + x[75] + x[97] <= 1
 clq748: x[1] + x[89] <= 1
 clq749: x[4] + x[81] <= 1
 clq750: x[5] + x[125] <= 1
 clq751: x[138] + x[82] <= 1
 clq752: x[145] + x[57] <= 1
 clq753: x[22] + x[63] <= 1
 clq754: x[23] + x[26] <= 1
 clq755: x[150] + x[58] <= 1
 clq756: x[31] + x[29] <= 1
 clq757: x[33] + x[124] <= 1
 clq758: x[37] + x[98] <= 1
 clq759: x[67] + x[106] <= 1
 clq760: x[141] + x[51] <= 1
 clq761: x[83] + x[43] <= 1
 clq762: x[87] + x[119] <= 1
 clq763: x[94] + x[19] <= 1
 clq764: x[102] + x[112] <= 1
 clq765: x[104] + x[86] <= 1
 clq766: x[108] + x[147] <= 1
 clq767: x[113] + x[20] <= 1
 clq768: x[114] + x[27] <= 1
 clq769: x[117] + x[9] <= 1
 clq770: x[126] + x[118] <= 1
 clq771: x[2] + x[49] <= 1
 clq772: x[130] + x[65] <= 1
 clq773: x[8] + x[109] <= 1
 clq774: x[24] + x[11] <= 1
 clq775: x[30] + x[137] <= 1
 clq776: x[134] + x[91] <= 1
 clq777: x[45] + x[115] <= 1
 clq778: x[60] + x[76] <= 1
 clq779: x[48] + x[64] <= 1
 clq780: x[74] + x[56] <= 1
 clq781: x[116] + x[107] <= 1
 clq782: x[123] + x[55] <= 1
 clq783: x[3] + x[77] <= 1
 clq784: x[129] + x[14] + x[11] <= 1
 clq785: x[72] + x[96] <= 1
 clq786: x[111] + x[50] <= 1
 clq787: x[73] + x[121] <= 1
 clq788: x[76] + x[62] <= 1
 clq789: x[127] + x[26] <= 1
 clq790: x[143] + x[136] <= 1
 clq791: x[65] + x[18] <= 1
 clq792: x[34] + x[103] <= 1
 clq793: x[88] + x[32] <= 1
 clq794: x[15] + x[92] <= 1
 clq795: x[93] + x[95] <= 1
 clq796: x[100] + x[105] <= 1
 clq797: x[101] + x[128] <= 1
 clq798: x[146] + x[79] <= 1
 clq799: x[100] + x[122] <= 1
 clq800: x[139] + x[135] <= 1
 clq801: x[140] + x[131] <= 1
 clq802: x[137] + x[148] <= 1
 clq803: x[25] + x[54] <= 1
 clq804: x[99] + x[79] <= 1
 clq805: x[16] + x[133] <= 1
 clq806: x[80] + x[78] <= 1
 clq807: x[53] + x[20] <= 1
 clq808: x[106] + x[28] <= 1
 clq809: x[12] + x[44] <= 1
 clq810: x[149] + x[66] <= 1
 clq811: x[132] + x[142] <= 1
 clq812: x[73] + x[36] <= 1
 clq813: x[61] + x[50] <= 1
 clq814: x[71] + x[97] <= 1
 clq815: x[27] + x[144] <= 1
 clq816: x[42] + x[21] <= 1
 clq817: x[59] + x[133] <= 1
 clq818: x[66] + x[69] <= 1
 clq819: x[21] + x[46] <= 1
 clq820: x[1] + x[83] <= 1
 clq821: x[4] + x[52] <= 1
 clq822: x[5] + x[122] <= 1
 clq823: x[138] + x[91] <= 1
 clq824: x[13] + x[64] <= 1
 clq825: x[145] + x[141] <= 1
 clq826: x[22] + x[121] <= 1
 clq827: x[23] + x[103] <= 1
 clq828: x[150] + x[149] <= 1
 clq829: x[31] + x[32] <= 1
 clq830: x[33] + x[112] <= 1
 clq831: x[37] + x[12] <= 1
 clq832: x[67] + x[89] <= 1
 clq833: x[87] + x[108] <= 1
 clq834: x[94] + x[57] <= 1
 clq835: x[102] + x[51] <= 1
 clq836: x[104] + x[58] <= 1
 clq837: x[110] + x[125] <= 1
 clq838: x[113] + x[98] <= 1
 clq839: x[114] + x[17] <= 1
 clq840: x[117] + x[81] + x[140] <= 1
 clq841: x[119] + x[124] <= 1
 clq842: x[120] + x[60] <= 1
 clq843: x[126] + x[58] <= 1
 clq844: x[2] + x[24] <= 1
 clq845: x[130] + x[131] <= 1
 clq846: x[6] + x[82] <= 1
 clq847: x[7] + x[62] <= 1
 clq848: x[2] + x[8] <= 1
 clq849: x[147] + x[10] <= 1
 clq850: x[30] + x[36] <= 1
 clq851: x[134] + x[53] <= 1
 clq852: x[45] + x[127] <= 1
 clq853: x[49] + x[123] <= 1
 clq854: x[70] + x[74] <= 1
 clq855: x[116] + x[69] <= 1
 clq856: x[118] + x[51] <= 1
 clq857: x[3] + x[41] <= 1
 clq858: x[38] + x[56] <= 1
 clq859: x[72] + x[9] <= 1
 clq860: x[43] + x[105] <= 1
 clq861: x[77] + x[122] <= 1
 clq862: x[111] + x[59] <= 1
 clq863: x[90] + x[18] <= 1
 clq864: x[3] + x[63] <= 1
 clq865: x[29] + x[107] <= 1
 clq866: x[143] + x[97] <= 1
 clq867: x[34] + x[148] <= 1
 clq868: x[109] + x[28] <= 1
 clq869: x[85] + x[136] <= 1
 clq870: x[130] + x[88] <= 1
 clq871: x[15] + x[16] <= 1
 clq872: x[93] + x[40] <= 1
 clq873: x[101] + x[57] <= 1
 clq874: x[146] + x[149] <= 1
 clq875: x[139] + x[19] <= 1
 clq876: x[65] + x[54] <= 1
 clq877: x[86] + x[92] <= 1
 clq878: x[60] + x[96] <= 1
 clq879: x[99] + x[19] <= 1
 clq880: x[39] + x[115] <= 1
 clq881: x[17] + x[80] <= 1
 clq882: x[25] + x[55] <= 1
 clq883: x[135] + x[42] <= 1
 clq884: x[49] + x[95] <= 1
 clq885: x[114] + x[132] <= 1
 clq886: x[129] + x[61] <= 1
 clq887: x[71] + x[78] <= 1
 clq888: x[10] + x[144] <= 1
 clq889: x[121] + x[44] <= 1
 clq890: x[131] + x[142] <= 1
 clq891: x[137] + x[128] <= 1
 clq892: x[68] + x[46] <= 1
 clq893: x[1] + x[22] <= 1
 clq894: x[4] + x[85] <= 1
 clq895: x[5] + x[13] <= 1
 clq896: x[138] + x[148] <= 1
 clq897: x[145] + x[106] <= 1
 clq898: x[23] + x[76] <= 1
 clq899: x[150] + x[29] <= 1
 clq900: x[31] + x[84] <= 1
 clq901: x[33] + x[21] <= 1
 clq902: x[37] + x[126] <= 1
 clq903: x[47] + x[146] <= 1
 clq904: x[67] + x[94] <= 1
 clq905: x[141] + x[90] <= 1
 clq906: x[83] + x[124] + x[144] <= 1
 clq907: x[87] + x[46] <= 1
 clq908: x[89] + x[12] <= 1
 clq909: x[102] + x[38] <= 1
 clq910: x[104] + x[120] <= 1
 clq911: x[108] + x[28] <= 1
 clq912: x[110] + x[92] <= 1
 clq913: x[113] + x[93] <= 1
 clq914: x[1] + x[119] <= 1
 clq915: x[6] + x[123] <= 1
 clq916: x[7] + x[79] <= 1
 clq917: x[8] + x[27] <= 1
 clq918: x[147] + x[86] <= 1
 clq919: x[24] + x[116] <= 1
 clq920: x[30] + x[69] <= 1
 clq921: x[134] + x[100] <= 1
 clq922: x[45] + x[62] <= 1
 clq923: x[48] + x[34] <= 1
 clq924: x[102] + x[64] <= 1
 clq925: x[70] + x[101] <= 1
 clq926: x[74] + x[107] <= 1
 clq927: x[82] + x[36] <= 1
 clq928: x[118] + x[12] <= 1
 clq929: x[98] + x[73] <= 1
 clq930: x[35] + x[109] <= 1
 clq931: x[72] + x[42] <= 1
 clq932: x[41] + x[135] <= 1
 clq933: x[43] + x[75] <= 1
 clq934: x[77] + x[56] <= 1
 clq935: x[111] + x[99] <= 1
 clq936: x[52] + x[16] <= 1
 clq937: x[63] + x[125] <= 1
 clq938: x[127] + x[112] <= 1
 clq939: x[67] + x[143] <= 1
 clq940: x[18] + x[20] <= 1
 clq941: x[34] + x[88] <= 1
 clq942: x[43] + x[15] <= 1
 clq943: x[139] + x[105] <= 1
 clq944: x[14] + x[99] <= 1
 clq945: x[138] + x[54] <= 1
 clq946: x[96] + x[53] <= 1
 clq947: x[40] + x[50] <= 1
 clq948: x[39] + x[91] <= 1
 clq949: x[137] + x[80] <= 1
 clq950: x[136] + x[142] <= 1
 clq951: x[10] + x[55] <= 1
 clq952: x[93] + x[26] <= 1
 clq953: x[66] + x[9] <= 1
 clq954: x[58] + x[95] <= 1
 clq955: x[103] + x[61] <= 1
 clq956: x[132] + x[19] <= 1
 clq957: x[71] + x[128] <= 1
 clq958: x[126] + x[32] <= 1
 clq959: x[59] + x[78] <= 1
 clq960: x[36] + x[115] <= 1
 clq961: x[68] + x[44] <= 1
 clq962: x[65] + x[133] <= 1
 clq963: x[4] + x[31] <= 1
 clq964: x[5] + x[85] <= 1
 clq965: x[13] + x[27] <= 1
 clq966: x[145] + x[52] <= 1
 clq967: x[22] + x[15] <= 1
 clq968: x[23] + x[135] <= 1
 clq969: x[150] + x[77] <= 1
 clq970: x[33] + x[72] <= 1
 clq971: x[37] + x[25] <= 1
 clq972: x[47] + x[119] <= 1
 clq973: x[141] + x[146] <= 1
 clq974: x[87] + x[95] <= 1
 clq975: x[89] + x[84] <= 1
 clq976: x[94] + x[46] <= 1
 clq977: x[104] + x[64] <= 1
 clq978: x[106] + x[90] <= 1
 clq979: x[108] + x[62] <= 1
 clq980: x[110] + x[45] <= 1
 clq981: x[113] + x[114] <= 1
 clq982: x[117] + x[59] <= 1
 clq983: x[120] + x[32] <= 1
 clq984: x[2] + x[7] <= 1
 clq985: x[130] + x[8] <= 1
 clq986: x[6] + x[57] <= 1
 clq987: x[147] + x[123] <= 1
 clq988: x[24] + x[127] <= 1
 clq989: x[30] + x[118] <= 1
 clq990: x[134] + x[88] <= 1
 clq991: x[48] + x[42] <= 1
 clq992: x[49] + x[142] <= 1
 clq993: x[60] + x[115] <= 1
 clq994: x[70] + x[129] <= 1
 clq995: x[74] + x[40] <= 1
 clq996: x[76] + x[128] <= 1
 clq997: x[82] + x[133] <= 1
 clq998: x[116] + x[143] <= 1
 clq999: x[3] + x[111] <= 1
 clq1000: x[98] + x[54] <= 1
 clq1001: x[35] + x[107] <= 1
 clq1002: x[38] + x[73] <= 1
 clq1003: x[41] + x[131] <= 1
 clq1004: x[51] + x[148] <= 1
 clq1005: x[63] + x[75] <= 1
 clq1006: x[29] + x[121] <= 1
 clq1007: x[17] + x[149] <= 1
 clq1008: x[18] + x[136] <= 1
 clq1009: x[109] + x[78] <= 1
 clq1010: x[81] + x[39] <= 1
 clq1011: x[100] + x[50] <= 1
 clq1012: x[101] + x[125] <= 1
 clq1013: x[122] + x[55] <= 1
 clq1014: x[139] + x[80] <= 1
 clq1015: x[140] + x[97] <= 1
 clq1016: x[14] + x[21] <= 1
 clq1017: x[56] + x[132] <= 1
 clq1018: x[86] + x[44] <= 1
 clq1019: x[96] + x[112] <= 1
 clq1020: x[16] + x[69] <= 1
 clq1021: x[53] + x[103] <= 1
 clq1022: x[28] + x[20] <= 1
 clq1023: x[26] + x[79] <= 1
 clq1024: x[66] + x[71] <= 1
 clq1025: x[61] + x[92] <= 1
 clq1026: x[9] + x[91] <= 1
 clq1027: x[11] + x[105] <= 1
Bounds
Binaries
 x[1] x[4] x[5] x[138] x[13] x[145] x[22] x[23] x[150] x[31] x[33] x[37]
 x[47] x[67] x[141] x[83] x[87] x[89] x[94] x[102] x[104] x[106] x[108]
 x[110] x[113] x[114] x[117] x[119] x[120] x[124] x[126] x[2] x[130] x[6]
 x[7] x[8] x[147] x[24] x[25] x[27] x[30] x[134] x[45] x[48] x[49] x[58]
 x[60] x[64] x[70] x[74] x[76] x[82] x[84] x[116] x[118] x[123] x[3] x[65]
 x[98] x[35] x[38] x[129] x[72] x[41] x[43] x[77] x[111] x[51] x[73] x[52]
 x[90] x[63] x[29] x[62] x[127] x[10] x[143] x[17] x[18] x[34] x[75] x[109]
 x[81] x[85] x[88] x[15] x[93] x[100] x[101] x[107] x[146] x[122] x[137]
 x[139] x[140] x[14] x[148] x[54] x[56] x[86] x[96] x[125] x[99] x[68]
 x[16] x[40] x[39] x[80] x[136] x[53] x[55] x[57] x[28] x[135] x[12] x[20]
 x[149] x[26] x[66] x[79] x[95] x[103] x[121] x[132] x[36] x[61] x[71] x[9]
 x[144] x[19] x[32] x[42] x[59] x[91] x[115] x[11] x[44] x[92] x[112]
 x[131] x[105] x[142] x[69] x[21] x[78] x[128] x[133] x[46] x[50] x[97]
End
